NAME
ROWS
 N  OBJ
 L  c2
 E  c1
COLUMNS
    y         OBJ       -1
    z         OBJ       -1
    x         c1        1
RHS
    rhs       c2        0
    rhs       c1        1
RANGES
BOUNDS
 FR bounds    y
 FR bounds    z
 LO bounds    x         0
 PL bounds    x
QCMATRIX   c2
    y         y         1
    z         z         1
    x         x         -1
ENDATA
